NAME: C:/Users/ben/git/CSI5183_F2014/CSI5183/Instances/Nodes/50n_10s_15d_instance.tsp
COMMENT: Ben Desjardins (bdesj038@uottawa.ca)
DIMENSION: 50
SPARCITY: 10
%HOLES: 15.0%
EDGE_WEIGHT_TYPE: EUC_2D


NODE	X_LOC	Y_LOC	DEMAND	BATTERY
DATASTART
0	0	0	0	0
1	-240	185	1	98
2	-176	240	1	3
3	-133	256	1	38
4	-106	225	1	21
5	21	245	1	11
6	-359	56	1	1
7	193	133	1	36
8	35	351	1	71
9	-397	136	1	100
10	-401	336	1	60
11	-193	424	1	22
12	416	233	1	18
13	308	180	1	29
14	151	482	1	81
15	-211	-179	1	21
16	240	354	1	86
17	62	6	1	96
18	-177	415	1	17
19	-484	59	1	5
20	-412	301	1	23
21	-452	-31	1	59
22	-290	431	1	54
23	-384	77	1	75
24	-262	57	1	78
25	112	29	1	21
26	80	-155	1	17
27	-369	31	1	55
28	-247	-451	1	50
29	-134	-334	1	75
30	309	162	1	3
31	-478	-242	1	27
32	-365	-329	1	71
33	228	-111	1	97
34	25	18	1	76
35	-274	498	1	74
36	-148	-311	1	64
37	-27	-423	1	64
38	77	252	1	88
39	-258	-488	1	72
40	-498	340	1	50
41	281	-391	1	70
42	-282	111	1	35
EODATA
NODE	X_LOC	Y_LOC	DEMAND	DEGREE
HOLESTART
0	-180	220	-1	12
1	340	380	-1	12
2	-200	420	-1	12
3	380	40	-1	12
4	-60	-280	-1	12
5	500	-100	-1	8
6	0	460	-1	12
7	-360	120	-1	12
EOHOLE
EOF
